\ This file has been generated by DOcplex
\ ENCODING=ISO-8859-1
\Problem name: CPLEX

Minimize
 obj: - 8 b_0 + 9 b_1 + 7 b_2 + 15 b_3 - 2 b_4 + 19 b_5 + 18 b_6 + 8 f_0
      + 15 f_1 + 10
Subject To
 lin_eq_0: 8 b_4 + 6 b_5 <= 0
 lin_eq_1: - 3 b_1 + 11 f_1 <= 792
 lin_eq_2: 10 b_5 - 2 f_0 <= -114
 lin_eq_3: 12 b_0 <= 0
 lin_eq_4: - 10 b_3 + 9 f_0 <= 513

Bounds
 0 <= b_0 <= 1
 0 <= b_1 <= 1
 0 <= b_2 <= 1
 0 <= b_3 <= 1
 0 <= b_4 <= 1
 0 <= b_5 <= 1
 0 <= b_6 <= 1
 5 <= f_0 <= 63
 1 <= f_1 <= 94

Binaries
 b_0 b_1 b_2 b_3 b_4 b_5 b_6
End
